param: ARCS: c lb ub i j:
1 4 0 50 1 4
2 4 0 100 1 5
3 5 0 60 1 6
4 4 0 20 1 7
5 5 0 120 2 4 
6 1 0 100 2 5
7 7 0 100 2 6
8 9 0 80 2 7
9 8 0 50 3 4 
10 2 0 70 3 5
11 8 0 40 3 6
12 2 0 80 3 7
13 
14
15
16
17
18
19
20

param NODES: b:=
1 100
2 200
3 120
4 0
5 0
6 0
7 0
8 -20
9 -30
10 -15
11 -25
